Minimize
  - 20 y_0 - 26 y_1 - 21 y_2 - 8 y_3 - 25 y_4 - 13 y_5 - 11 y_6 - 29 y_7
   - 28 y_8 + 28 x_0_1 + 4 x_0_2 + 58 x_0_3 + 45 x_0_5 + 48 x_0_6
   + 37 x_0_7 + 38 x_0_8 + 80 x_0_9 + 25 x_1_2 + 77 x_1_3 + 58 x_1_5
   + 76 x_1_6 + 103 x_1_9 + 60 x_2_3 + 23 x_2_4 + 52 x_2_6 + 34 x_2_8
   + 83 x_2_9 + 42 x_3_6 + 91 x_3_7 + 56 x_4_5 + 17 x_4_7 + 11 x_4_8
   + 102 x_4_9 + 52 x_5_6 + 73 x_5_7 + 62 x_5_8 + 84 x_6_7 + 85 x_6_8
   + 43 x_6_9 + 18 x_7_8 + 18 x_7_8 + 18 x_7_8 + 18 x_7_8 + 18 x_7_8
   + 18 x_7_8 + 18 x_7_8 + 18 x_7_8 + 18 x_7_8 + 18 x_7_8 + 18 x_7_8
   + 18 x_7_8 + 18 x_7_8 + 18 x_7_8 + 18 x_7_8 + 18 x_7_8 + 18 x_7_8
   + 18 x_7_8 + 18 x_7_8 + 18 x_7_8 + 18 x_7_8 + 18 x_7_8 + 18 x_7_8
   + 18 x_7_8 + 18 x_7_8 + 18 x_7_8 + 18 x_7_8 + 18 x_7_8 + 18 x_7_8
   + 18 x_7_8 + 18 x_7_8 + 18 x_7_8 + 18 x_7_8 + 18 x_7_8 + 18 x_7_8
   + 18 x_7_8 + 18 x_7_8 + 18 x_7_8 + 18 x_7_8 + 18 x_7_8 + 18 x_7_8
   + 18 x_7_8 + 18 x_7_8 + 18 x_7_8 + 18 x_7_8 + 18 x_7_8 + 18 x_7_8
   + 18 x_7_8 + 18 x_7_8 + 18 x_7_8 + 18 x_7_8 + 18 x_7_8 + 18 x_7_8
   + 18 x_7_8 + 18 x_7_8 + 18 x_7_8 + 18 x_7_8 + 18 x_7_8 + 18 x_7_8
   + 18 x_7_8 + 18 x_7_8 + 18 x_7_8 + 18 x_7_8 + 18 x_7_8 + 18 x_7_8
   + 18 x_7_8 + 18 x_7_8 + 18 x_7_8 + 18 x_7_8 + 18 x_7_8 + 18 x_7_8
   + 18 x_7_8 + 18 x_7_8 + 18 x_7_8 + 18 x_7_8 + 18 x_7_8 + 18 x_7_8
   + 18 x_7_8 + 18 x_7_8 + 18 x_7_8 + 18 x_7_8 + 18 x_7_8 + 18 x_7_8
   + 18 x_7_8 + 18 x_7_8 + 18 x_7_8 + 18 x_7_8 + 18 x_7_8 + 18 x_7_8
   + 18 x_7_8 + 18 x_7_8 + 18 x_7_8 + 18 x_7_8 + 18 x_7_8 + 18 x_7_8
   + 18 x_7_8 + 18 x_7_8 + 18 x_7_8 + 18 x_7_8 + 18 x_7_8 + 18 x_7_8
   + 18 x_7_8 + 18 x_7_8 + 18 x_7_8 + 18 x_7_8 + 18 x_7_8 + 18 x_7_8
   + 18 x_7_8 + 18 x_7_8 + 18 x_7_8 + 18 x_7_8 + 18 x_7_8 + 18 x_7_8
   + 18 x_7_8 + 18 x_7_8 + 18 x_7_8 + 18 x_7_8 + 18 x_7_8 + 18 x_7_8
   + 18 x_7_8 + 18 x_7_8 + 18 x_7_8 + 18 x_7_8 + 18 x_7_8 + 18 x_7_8
   + 18 x_7_8 + 18 x_7_8 + 18 x_7_8 + 18 x_7_8 + 18 x_7_8 + 18 x_7_8
   + 18 x_7_8 + 18 x_7_8 + 18 x_7_8 + 18 x_7_8 + 18 x_7_8 + 18 x_7_8
   + 18 x_7_8 + 18 x_7_8 + 18 x_7_8 + 18 x_7_8 + 18 x_7_8 + 18 x_7_8
   + 18 x_7_8 + 18 x_7_8 + 18 x_7_8 + 18 x_7_8 + 18 x_7_8 + 18 x_7_8
   + 18 x_7_8 + 18 x_7_8 + 18 x_7_8 + 18 x_7_8 + 18 x_7_8 + 18 x_7_8
   + 18 x_7_8 + 18 x_7_8 + 18 x_7_8 + 18 x_7_8 + 18 x_7_8 + 18 x_7_8
   + 18 x_7_8 + 18 x_7_8 + 18 x_7_8 + 18 x_7_8 + 18 x_7_8 + 18 x_7_8
   + 18 x_7_8 + 18 x_7_8 + 18 x_7_8 + 18 x_7_8 + 18 x_7_8 + 18 x_7_8
   + 18 x_7_8 + 18 x_7_8 + 18 x_7_8 + 18 x_7_8 + 18 x_7_8 + 18 x_7_8
   + 18 x_7_8 + 18 x_7_8 + 18 x_7_8 + 18 x_7_8 + 18 x_7_8 + 18 x_7_8
   + 18 x_7_8 + 18 x_7_8 + 18 x_7_8 + 18 x_7_8 + 18 x_7_8 + 18 x_7_8
   + 18 x_7_8 + 18 x_7_8 + 18 x_7_8 + 18 x_7_8 + 18 x_7_8 + 18 x_7_8
   + 18 x_7_8 + 18 x_7_8 + 18 x_7_8 + 18 x_7_8 + 18 x_7_8 + 18 x_7_8
   + 18 x_7_8 + 18 x_7_8 + 18 x_7_8 + 18 x_7_8 + 18 x_7_8 + 18 x_7_8
   + 18 x_7_8 + 18 x_7_8 + 18 x_7_8 + 18 x_7_8 + 18 x_7_8 + 18 x_7_8
   + 18 x_7_8 + 18 x_7_8 + 18 x_7_8 + 18 x_7_8 + 18 x_7_8 + 18 x_7_8
   + 18 x_7_8 + 18 x_7_8 + 18 x_7_8 + 18 x_7_8 + 18 x_7_8 + 18 x_7_8
   + 18 x_7_8 + 18 x_7_8 + 18 x_7_8 + 18 x_7_8 + 18 x_7_8 + 18 x_7_8
   + 18 x_7_8 + 18 x_7_8 + 18 x_7_8 + 18 x_7_8 + 18 x_7_8 + 18 x_7_8
   + 18 x_7_8 + 18 x_7_8 + 18 x_7_8 + 18 x_7_8 + 18 x_7_8 + 18 x_7_8
   + 18 x_7_8 + 18 x_7_8 + 18 x_7_8 + 18 x_7_8 + 18 x_7_8 + 18 x_7_8
   + 18 x_7_8 + 18 x_7_8 + 18 x_7_8 + 18 x_7_8 + 18 x_7_8 + 18 x_7_8
   + 18 x_7_8 + 18 x_7_8 + 18 x_7_8 + 18 x_7_8 + 18 x_7_8 + 18 x_7_8
   + 18 x_7_8 + 18 x_7_8 + 18 x_7_8 + 18 x_7_8 + 18 x_7_8 + 18 x_7_8
   + 18 x_7_8 + 18 x_7_8 + 18 x_7_8 + 18 x_7_8 + 18 x_7_8 + 18 x_7_8
   + 18 x_7_8 + 18 x_7_8 + 18 x_7_8 + 18 x_7_8 + 18 x_7_8 + 181 Constant
Subject To
 c_0: y_0 = 1
 c_1_0: y_0 + y_2 >= 1
 c_1_1: y_1 + y_4 >= 1
 c_1_2: y_0 + y_2 >= 1
 c_1_3: y_3 >= 1
 c_1_4: y_1 + y_4 >= 1
 c_1_5: y_5 >= 1
 c_1_6: y_6 >= 1
 c_1_7: y_7 >= 1
 c_1_8: y_8 >= 1
 c_1_9: y_9 >= 1
 c_2_0: - 2 y_0 + x_0_1 + x_0_2 + x_0_3 + x_0_5 + x_0_6 + x_0_7 + x_0_8
   + x_0_9 = 0
 c_2_1: - 2 y_1 + x_0_1 + x_1_2 + x_1_3 + x_1_5 + x_1_6 + x_1_9 = 0
 c_2_2: - 2 y_2 + x_0_2 + x_1_2 + x_2_3 + x_2_4 + x_2_6 + x_2_8 + x_2_9
   = 0
 c_2_3: - 2 y_3 + x_0_3 + x_1_3 + x_2_3 + x_3_6 + x_3_7 = 0
 c_2_4: - 2 y_4 + x_2_4 + x_4_5 + x_4_7 + x_4_8 + x_4_9 = 0
 c_2_5: - 2 y_5 + x_0_5 + x_1_5 + x_4_5 + x_5_6 + x_5_7 + x_5_8 = 0
 c_2_6: - 2 y_6 + x_0_6 + x_1_6 + x_2_6 + x_3_6 + x_5_6 + x_6_7 + x_6_8
   + x_6_9 = 0
 c_2_7: - 2 y_7 + x_0_7 + x_3_7 + x_4_7 + x_5_7 + x_6_7 + 280 x_7_8 = 0
 c_2_8: - 2 y_8 + x_0_8 + x_2_8 + x_4_8 + x_5_8 + x_6_8 + 280 x_7_8 = 0
 c_2_9: - 2 y_9 + x_0_9 + x_1_9 + x_2_9 + x_4_9 + x_6_9 = 0
Bounds
 Constant = 1
Binaries
 y_0 y_1 y_2 y_3 y_4 y_5 y_6 y_7 y_8 y_9 x_0_1 x_0_2 x_0_3 x_0_5 x_0_6
 x_0_7 x_0_8 x_0_9 x_1_2 x_1_3 x_1_5 x_1_6 x_1_9 x_2_3 x_2_4 x_2_6 x_2_8
 x_2_9 x_3_6 x_3_7 x_4_5 x_4_7 x_4_8 x_4_9 x_5_6 x_5_7 x_5_8 x_6_7 x_6_8
 x_6_9 x_7_8 x_7_8 x_7_8 x_7_8 x_7_8 x_7_8 x_7_8 x_7_8 x_7_8 x_7_8 x_7_8
 x_7_8 x_7_8 x_7_8 x_7_8 x_7_8 x_7_8 x_7_8 x_7_8 x_7_8 x_7_8 x_7_8 x_7_8
 x_7_8 x_7_8 x_7_8 x_7_8 x_7_8 x_7_8 x_7_8 x_7_8 x_7_8 x_7_8 x_7_8 x_7_8
 x_7_8 x_7_8 x_7_8 x_7_8 x_7_8 x_7_8 x_7_8 x_7_8 x_7_8 x_7_8 x_7_8 x_7_8
 x_7_8 x_7_8 x_7_8 x_7_8 x_7_8 x_7_8 x_7_8 x_7_8 x_7_8 x_7_8 x_7_8 x_7_8
 x_7_8 x_7_8 x_7_8 x_7_8 x_7_8 x_7_8 x_7_8 x_7_8 x_7_8 x_7_8 x_7_8 x_7_8
 x_7_8 x_7_8 x_7_8 x_7_8 x_7_8 x_7_8 x_7_8 x_7_8 x_7_8 x_7_8 x_7_8 x_7_8
 x_7_8 x_7_8 x_7_8 x_7_8 x_7_8 x_7_8 x_7_8 x_7_8 x_7_8 x_7_8 x_7_8 x_7_8
 x_7_8 x_7_8 x_7_8 x_7_8 x_7_8 x_7_8 x_7_8 x_7_8 x_7_8 x_7_8 x_7_8 x_7_8
 x_7_8 x_7_8 x_7_8 x_7_8 x_7_8 x_7_8 x_7_8 x_7_8 x_7_8 x_7_8 x_7_8 x_7_8
 x_7_8 x_7_8 x_7_8 x_7_8 x_7_8 x_7_8 x_7_8 x_7_8 x_7_8 x_7_8 x_7_8 x_7_8
 x_7_8 x_7_8 x_7_8 x_7_8 x_7_8 x_7_8 x_7_8 x_7_8 x_7_8 x_7_8 x_7_8 x_7_8
 x_7_8 x_7_8 x_7_8 x_7_8 x_7_8 x_7_8 x_7_8 x_7_8 x_7_8 x_7_8 x_7_8 x_7_8
 x_7_8 x_7_8 x_7_8 x_7_8 x_7_8 x_7_8 x_7_8 x_7_8 x_7_8 x_7_8 x_7_8 x_7_8
 x_7_8 x_7_8 x_7_8 x_7_8 x_7_8 x_7_8 x_7_8 x_7_8 x_7_8 x_7_8 x_7_8 x_7_8
 x_7_8 x_7_8 x_7_8 x_7_8 x_7_8 x_7_8 x_7_8 x_7_8 x_7_8 x_7_8 x_7_8 x_7_8
 x_7_8 x_7_8 x_7_8 x_7_8 x_7_8 x_7_8 x_7_8 x_7_8 x_7_8 x_7_8 x_7_8 x_7_8
 x_7_8 x_7_8 x_7_8 x_7_8 x_7_8 x_7_8 x_7_8 x_7_8 x_7_8 x_7_8 x_7_8 x_7_8
 x_7_8 x_7_8 x_7_8 x_7_8 x_7_8 x_7_8 x_7_8 x_7_8 x_7_8 x_7_8 x_7_8 x_7_8
 x_7_8 x_7_8 x_7_8 x_7_8 x_7_8 x_7_8 x_7_8 x_7_8 x_7_8 x_7_8 x_7_8 x_7_8
 x_7_8 x_7_8 x_7_8 x_7_8 x_7_8 x_7_8 x_7_8 x_7_8 x_7_8 x_7_8 x_7_8 x_7_8
 x_7_8 x_7_8 x_7_8 x_7_8 x_7_8 x_7_8 x_7_8 x_7_8 x_7_8 x_7_8 x_7_8 x_7_8
 x_7_8 x_7_8 x_7_8 x_7_8 x_7_8 x_7_8 x_7_8 x_7_8 x_7_8 x_7_8 x_7_8 x_7_8
 x_7_8 x_7_8 x_7_8 x_7_8 x_7_8
End
